param : E :   A :=
       1 2   14
       1 4   23
       2 3   10
       2 4    9
       3 5   12
       3 8   18
       4 5   26
       5 2   11
       5 6   25
       5 7    4
       6 7    7
       6 8    8
       7 9   15
       8 9   20;

set V := 1 2 3 4 5 6 7 8 9;

param S := 1;

param T := 9;

